1917
1659
977
1671
525
515
408
1361
775
788
1902
154
893
388
1356
183
1142
1781
199
1378
1570
1092
518
984
1730
795
582
1387
227
1102
305
1709
1575
1924
469
1550
1798
374
1543
474
784
241
1190
1105
368
862
592
973
1503
1888
